(declare-fun Constructed_Argument_t () String)
(declare-fun CreateAsClass () Bool)
(declare-fun ExpandObjSwitcher () Real)
(assert (= Constructed_Argument_t "object"))
(assert (not CreateAsClass))
(assert (not (= ExpandObjSwitcher 0.0)))
(check-sat)
